Copyright (C) 2013-2015, Filipe Brandao
Build (method = -2)
  #dp: 9843
  Step-3' Graph: 122 vertices and 3746 arcs (0.01s)
  Step-4' Graph: 121 vertices and 3744 arcs (0.01s)
  #V4/#V3 = 0.99
  #A4/#A3 = 1.00
Ready! (0.01s)
Optimize a model with 226 rows, 3745 columns and 11002 nonzeros
Found heuristic solution: objective 335
Presolve removed 47 rows and 47 columns
Presolve time: 0.02s
Presolved: 179 rows, 3698 columns, 10858 nonzeros
Variable types: 0 continuous, 3698 integer (84 binary)
Optimize a model with 179 rows, 3698 columns and 10858 nonzeros
Presolved: 179 rows, 3698 columns, 10858 nonzeros

Root barrier log...

Ordering time: 0.00s

Barrier statistics:
 AA' NZ     : 6.986e+03
 Factor NZ  : 1.072e+04 (roughly 2 MBytes of memory)
 Factor Ops : 8.815e+05 (less than 1 second per iteration)
 Threads    : 1

                  Objective                Residual
Iter       Primal          Dual         Primal    Dual     Compl     Time
   0   7.96651581e+03 -3.67472824e+04  3.83e+04 8.48e-02  6.11e+01     0s
   1   2.41894966e+03 -1.41289230e+04  6.37e+03 6.66e-16  1.11e+01     0s
   2   6.72234579e+02 -5.75321945e+03  5.93e+02 6.65e-03  1.60e+00     0s
   3   4.35664887e+02 -1.23986400e+03  4.43e+01 3.33e-15  2.57e-01     0s
   4   3.82834584e+02 -5.37754652e+02  1.57e+01 1.67e-15  1.31e-01     0s
   5   3.30906943e+02 -1.93796655e+02  9.42e+00 1.11e-15  7.42e-02     0s
   6   2.89533478e+02 -1.52482427e+01  5.31e+00 4.44e-16  4.27e-02     0s
   7   2.43855343e+02  6.55727075e+01  2.44e+00 5.55e-16  2.47e-02     0s
   8   2.00966359e+02  9.93958102e+01  7.37e-01 4.06e-16  1.38e-02     0s
   9   1.89679686e+02  1.47764957e+02  4.03e-01 3.33e-16  5.72e-03     0s
  10   1.84585928e+02  1.58457417e+02  2.22e-01 3.79e-16  3.55e-03     0s
  11   1.83406499e+02  1.66979554e+02  1.79e-01 4.63e-16  2.23e-03     0s
  12   1.81991841e+02  1.71798819e+02  1.04e-01 4.29e-16  1.38e-03     0s
  13   1.81113053e+02  1.74170205e+02  5.74e-02 5.43e-16  9.36e-04     0s
  14   1.80842077e+02  1.74534240e+02  4.66e-02 4.28e-16  8.50e-04     0s
  15   1.80158400e+02  1.76369050e+02  2.22e-02 4.59e-16  5.10e-04     0s
  16   1.79799515e+02  1.77402707e+02  1.10e-02 3.23e-16  3.22e-04     0s
  17   1.79665778e+02  1.78441443e+02  7.34e-03 3.35e-16  1.65e-04     0s
  18   1.79581843e+02  1.78586776e+02  5.52e-03 3.54e-16  1.34e-04     0s
  19   1.79509856e+02  1.78816257e+02  3.85e-03 3.48e-16  9.32e-05     0s
  20   1.79492136e+02  1.78980802e+02  3.43e-03 3.86e-16  6.87e-05     0s
  21   1.79436203e+02  1.79130436e+02  2.23e-03 3.57e-16  4.11e-05     0s
  22   1.79403505e+02  1.79208749e+02  1.42e-03 3.33e-16  2.62e-05     0s
  23   1.79358247e+02  1.79292737e+02  4.23e-04 3.04e-16  8.80e-06     0s
  24   1.79327862e+02  1.79323409e+02  2.43e-06 3.33e-16  5.98e-07     0s
  25   1.79326557e+02  1.79326487e+02  5.88e-09 3.45e-16  9.38e-09     0s
  26   1.79326531e+02  1.79326531e+02  2.27e-13 3.02e-16  1.91e-14     0s

Barrier solved model in 26 iterations and 0.04 seconds
Optimal objective 1.79326531e+02


Root relaxation: objective 1.793265e+02, 324 iterations, 0.05 seconds

    Nodes    |    Current Node    |     Objective Bounds      |     Work
 Expl Unexpl |  Obj  Depth IntInf | Incumbent    BestBd   Gap | It/Node Time

     0     0  179.32653    0   49  335.00000  179.32653  46.5%     -    0s
H    0     0                     180.0000000  179.32653  0.37%     -    0s

Explored 0 nodes (1448 simplex iterations) in 0.13 seconds
Thread count was 1 (of 4 available processors)

Optimal solution found (tolerance 0.00e+00)
Best objective 1.800000000000e+02, best bound 1.800000000000e+02, gap 0.0%
Preprocessing time: 0.02 seconds
Gurobi run time: 0.13 seconds
Total run time: 0.15 seconds
Objective: 180
Solution:
2 x [i=1, i=90]
2 x [i=2, i=89]
1 x [i=2, i=90]
1 x [i=2, i=104, i=105]
4 x [i=3, i=88]
1 x [i=3, i=105]
2 x [i=4, i=87]
3 x [i=5, i=86]
2 x [i=6, i=85]
2 x [i=7, i=84]
1 x [i=7, i=85]
1 x [i=7, i=102]
1 x [i=7, i=105]
4 x [i=8, i=83]
3 x [i=9, i=82]
2 x [i=10, i=81]
1 x [i=10, i=82]
2 x [i=11, i=80]
1 x [i=11, i=99, i=101]
3 x [i=12, i=79]
1 x [i=12, i=94, i=105]
1 x [i=12, i=104]
2 x [i=13, i=78]
1 x [i=13, i=93, i=105]
4 x [i=14, i=77]
3 x [i=15, i=76]
1 x [i=15, i=99]
3 x [i=16, i=75]
3 x [i=17, i=74]
1 x [i=17, i=96, i=98]
1 x [i=17, i=97, i=97]
3 x [i=18, i=73]
3 x [i=19, i=72]
1 x [i=20, i=71]
1 x [i=21, i=70]
2 x [i=21, i=91, i=99]
1 x [i=21, i=93, i=97]
3 x [i=22, i=69]
4 x [i=23, i=68]
1 x [i=23, i=94, i=94]
2 x [i=24, i=67]
1 x [i=24, i=86, i=101]
2 x [i=24, i=87, i=100]
2 x [i=25, i=66]
2 x [i=26, i=65]
4 x [i=27, i=64]
6 x [i=28, i=63]
6 x [i=29, i=62]
2 x [i=30, i=61]
2 x [i=31, i=60]
2 x [i=31, i=61]
2 x [i=31, i=85, i=95]
1 x [i=32, i=59]
5 x [i=33, i=58]
1 x [i=33, i=86, i=92]
4 x [i=34, i=57]
1 x [i=34, i=72, i=105]
1 x [i=34, i=85, i=92]
6 x [i=35, i=56]
1 x [i=35, i=82, i=94]
4 x [i=36, i=55]
2 x [i=37, i=54]
2 x [i=37, i=87, i=87]
2 x [i=38, i=53]
2 x [i=38, i=71, i=102]
1 x [i=38, i=86, i=87]
3 x [i=39, i=52]
1 x [i=39, i=71, i=101]
3 x [i=40, i=51]
3 x [i=41, i=50]
3 x [i=42, i=49]
1 x [i=43, i=48]
3 x [i=43, i=65, i=103]
2 x [i=43, i=72, i=96]
3 x [i=44, i=47]
3 x [i=45, i=46]
1 x [i=46, i=65, i=99]
1 x [i=46, i=69, i=95]
1 x [i=50, i=61, i=99]
1 x [i=51, i=61, i=98]
2 x [i=51, i=62, i=97]
1 x [i=51, i=77, i=82]
1 x [i=61, i=64, i=85]
1 x [i=66, i=69, i=75]
1 x [i=66, i=72, i=72]
